c description: Perfect Matching Principle on 
c generator: CNFgen (0.9.0)
c copyright: (C) 2012-2020 Massimo Lauria <massimo.lauria@uniroma1.it>
c url: https://massimolauria.net/cnfgen
c
p cnf 80 360
-1 -2 0
-1 -3 0
-1 -4 0
-1 -5 0
-1 -6 0
-1 -7 0
-2 -3 0
-2 -4 0
-2 -5 0
-2 -6 0
-2 -7 0
-3 -4 0
-3 -5 0
-3 -6 0
-3 -7 0
-4 -5 0
-4 -6 0
-4 -7 0
-5 -6 0
-5 -7 0
-6 -7 0
1 2 3 4 5 6 7 0
-8 -9 0
-8 -10 0
-9 -10 0
8 9 10 0
-11 -12 0
-11 -13 0
-11 -14 0
-11 -15 0
-11 -16 0
-12 -13 0
-12 -14 0
-12 -15 0
-12 -16 0
-13 -14 0
-13 -15 0
-13 -16 0
-14 -15 0
-14 -16 0
-15 -16 0
11 12 13 14 15 16 0
-17 -18 0
-17 -19 0
-17 -20 0
-17 -21 0
-17 -22 0
-17 -23 0
-18 -19 0
-18 -20 0
-18 -21 0
-18 -22 0
-18 -23 0
-19 -20 0
-19 -21 0
-19 -22 0
-19 -23 0
-20 -21 0
-20 -22 0
-20 -23 0
-21 -22 0
-21 -23 0
-22 -23 0
17 18 19 20 21 22 23 0
-24 -25 0
-24 -26 0
-24 -27 0
-25 -26 0
-25 -27 0
-26 -27 0
24 25 26 27 0
-28 -29 0
28 29 0
30 0
-28 -31 0
-28 -32 0
-28 -33 0
-28 -34 0
-28 -35 0
-31 -32 0
-31 -33 0
-31 -34 0
-31 -35 0
-32 -33 0
-32 -34 0
-32 -35 0
-33 -34 0
-33 -35 0
-34 -35 0
28 31 32 33 34 35 0
-36 -37 0
36 37 0
-38 -39 0
-38 -40 0
-39 -40 0
38 39 40 0
-17 -24 0
-17 -41 0
-17 -42 0
-17 -43 0
-17 -44 0
-17 -45 0
-24 -41 0
-24 -42 0
-24 -43 0
-24 -44 0
-24 -45 0
-41 -42 0
-41 -43 0
-41 -44 0
-41 -45 0
-42 -43 0
-42 -44 0
-42 -45 0
-43 -44 0
-43 -45 0
-44 -45 0
17 24 41 42 43 44 45 0
-11 -41 0
-11 -46 0
-11 -47 0
-11 -48 0
-11 -49 0
-41 -46 0
-41 -47 0
-41 -48 0
-41 -49 0
-46 -47 0
-46 -48 0
-46 -49 0
-47 -48 0
-47 -49 0
-48 -49 0
11 41 46 47 48 49 0
-36 -50 0
36 50 0
-51 -52 0
-51 -53 0
-52 -53 0
51 52 53 0
-1 -31 0
-1 -54 0
-31 -54 0
1 31 54 0
-12 -32 0
-12 -37 0
-12 -55 0
-32 -37 0
-32 -55 0
-37 -55 0
12 32 37 55 0
-54 -56 0
-54 -57 0
-54 -58 0
-54 -59 0
-54 -60 0
-56 -57 0
-56 -58 0
-56 -59 0
-56 -60 0
-57 -58 0
-57 -59 0
-57 -60 0
-58 -59 0
-58 -60 0
-59 -60 0
54 56 57 58 59 60 0
-25 -42 0
-25 -61 0
-25 -62 0
-42 -61 0
-42 -62 0
-61 -62 0
25 42 61 62 0
51 0
-55 -56 0
-55 -63 0
-55 -64 0
-55 -65 0
-55 -66 0
-56 -63 0
-56 -64 0
-56 -65 0
-56 -66 0
-63 -64 0
-63 -65 0
-63 -66 0
-64 -65 0
-64 -66 0
-65 -66 0
55 56 63 64 65 66 0
-18 -46 0
-18 -67 0
-18 -68 0
-46 -67 0
-46 -68 0
-67 -68 0
18 46 67 68 0
-38 -47 0
-38 -69 0
-38 -70 0
-47 -69 0
-47 -70 0
-69 -70 0
38 47 69 70 0
-19 -69 0
-19 -71 0
-69 -71 0
19 69 71 0
-2 -26 0
-2 -30 0
-2 -50 0
-2 -71 0
-2 -72 0
-2 -73 0
-26 -30 0
-26 -50 0
-26 -71 0
-26 -72 0
-26 -73 0
-30 -50 0
-30 -71 0
-30 -72 0
-30 -73 0
-50 -71 0
-50 -72 0
-50 -73 0
-71 -72 0
-71 -73 0
-72 -73 0
2 26 30 50 71 72 73 0
-3 -33 0
3 33 0
-13 -34 0
-13 -43 0
-13 -48 0
-13 -52 0
-13 -61 0
-13 -74 0
-13 -75 0
-34 -43 0
-34 -48 0
-34 -52 0
-34 -61 0
-34 -74 0
-34 -75 0
-43 -48 0
-43 -52 0
-43 -61 0
-43 -74 0
-43 -75 0
-48 -52 0
-48 -61 0
-48 -74 0
-48 -75 0
-52 -61 0
-52 -74 0
-52 -75 0
-61 -74 0
-61 -75 0
-74 -75 0
13 34 43 48 52 61 74 75 0
-4 -35 0
-4 -39 0
-4 -57 0
-4 -63 0
-4 -76 0
-4 -77 0
-35 -39 0
-35 -57 0
-35 -63 0
-35 -76 0
-35 -77 0
-39 -57 0
-39 -63 0
-39 -76 0
-39 -77 0
-57 -63 0
-57 -76 0
-57 -77 0
-63 -76 0
-63 -77 0
-76 -77 0
4 35 39 57 63 76 77 0
-5 -8 0
-5 -58 0
-8 -58 0
5 8 58 0
-53 -78 0
53 78 0
-14 -20 0
14 20 0
0
-9 -21 0
-9 -76 0
-21 -76 0
9 21 76 0
-22 -27 0
-22 -62 0
-27 -62 0
22 27 62 0
-15 -72 0
-15 -74 0
-15 -78 0
-15 -79 0
-72 -74 0
-72 -78 0
-72 -79 0
-74 -78 0
-74 -79 0
-78 -79 0
15 72 74 78 79 0
-6 -16 0
-6 -40 0
-6 -49 0
-6 -73 0
-6 -77 0
-16 -40 0
-16 -49 0
-16 -73 0
-16 -77 0
-40 -49 0
-40 -73 0
-40 -77 0
-49 -73 0
-49 -77 0
-73 -77 0
6 16 40 49 73 77 0
-59 -64 0
-59 -80 0
-64 -80 0
59 64 80 0
-29 -44 0
-29 -60 0
-29 -65 0
-29 -79 0
-44 -60 0
-44 -65 0
-44 -79 0
-60 -65 0
-60 -79 0
-65 -79 0
29 44 60 65 79 0
-10 -23 0
-10 -45 0
-10 -67 0
-10 -75 0
-23 -45 0
-23 -67 0
-23 -75 0
-45 -67 0
-45 -75 0
-67 -75 0
10 23 45 67 75 0
-66 -68 0
-66 -80 0
-68 -80 0
66 68 80 0
-7 -70 0
7 70 0